10235.4
99 67 60 85 70 69 20 2 82 79 42 90 49 32 88 63 35 87 53 64 83 37 1 29 75 68 65 38 36 46 18 72 30 76 24 41 17 40 71 44 97 51 3 93 14 86 59 81 47 23 58 0 4 94 77 96 12 78 33 80 31 13 22 73 57 91 55 74 84 52 56 34 5 98 50 6 21 15 54 11 95 10 43 16 9 28 45 89 39 8 7 25 26 19 66 62 92 61 48 27 
